NAME: GRASP_21_11
TYPE: TSP
COMMENT: line_21_11
DIMENSION: 21
EDGE_WEIGHT_TYPE: EUC_2D
NODE_COORD_SECTION
1 648 349
2 4566 1171
3 14 3457
4 1448 1953
5 3829 965
6 530 4309
7 4319 4729
8 4652 2495
9 4605 4710
10 2428 3022
11 717 1362
12 18 4677
13 264 4660
14 2909 4481
15 4017 3799
16 2350 2596
17 4674 2531
18 1403 2321
19 4972 810
20 3209 1220
21 4906 2357
